maximize
obj: 0.013452109120118735 x_1,1__out + 0.02690421824023747 x_1,2__out + 0.05380843648047494 x_1,3__out + 0.10761687296094988 x_1,4__out + 0.21523374592189976 x_1,5__out + 0.4304674918437995 x_1,6__out + 0.860934983687599 x_1,7__out + 1.721869967375198 x_1,8__out + 3.443739934750396 x_1,9__out + 6.887479869500792 x_1,10__out + 13.774959739001584 x_1,11__out + 27.54991947800317 x_1,12__out + 55.09983895600634 x_1,13__out + 110.19967791201267 x_1,14__out + 220.39935582402535 x_1,15__out - 0.03754606363698804 x_2,1__out - 0.07509212727397609 x_2,2__out - 0.15018425454795217 x_2,3__out - 0.30036850909590435 x_2,4__out - 0.6007370181918087 x_2,5__out - 1.2014740363836174 x_2,6__out - 2.4029480727672348 x_2,7__out - 4.8058961455344695 x_2,8__out - 9.611792291068939 x_2,9__out - 19.223584582137878 x_2,10__out - 38.447169164275756 x_2,11__out - 76.89433832855151 x_2,12__out - 153.78867665710303 x_2,13__out - 307.57735331420605 x_2,14__out - 615.1547066284121 x_2,15__out - 0.05078675761486025 x_3,1__out - 0.1015735152297205 x_3,2__out - 0.203147030459441 x_3,3__out - 0.406294060918882 x_3,4__out - 0.812588121837764 x_3,5__out - 1.625176243675528 x_3,6__out - 3.250352487351056 x_3,7__out - 6.500704974702112 x_3,8__out - 13.001409949404223 x_3,9__out - 26.002819898808447 x_3,10__out - 52.005639797616894 x_3,11__out - 104.01127959523379 x_3,12__out - 208.02255919046758 x_3,13__out - 416.04511838093515 x_3,14__out - 832.0902367618703 x_3,15__out - 0.04967731325859988 x_4,1__out - 0.09935462651719976 x_4,2__out - 0.1987092530343995 x_4,3__out - 0.397418506068799 x_4,4__out - 0.794837012137598 x_4,5__out - 1.589674024275196 x_4,6__out - 3.179348048550392 x_4,7__out - 6.358696097100784 x_4,8__out - 12.717392194201569 x_4,9__out - 25.434784388403138 x_4,10__out - 50.869568776806275 x_4,11__out - 101.73913755361255 x_4,12__out - 203.4782751072251 x_4,13__out - 406.9565502144502 x_4,14__out - 813.9131004289004 x_4,15__out + 0.03530719380728056 x_5,1__out + 0.07061438761456112 x_5,2__out + 0.14122877522912225 x_5,3__out + 0.2824575504582445 x_5,4__out + 0.564915100916489 x_5,5__out + 1.129830201832978 x_5,6__out + 2.259660403665956 x_5,7__out + 4.519320807331912 x_5,8__out + 9.038641614663824 x_5,9__out + 18.077283229327648 x_5,10__out + 36.154566458655296 x_5,11__out + 72.30913291731059 x_5,12__out + 144.61826583462118 x_5,13__out + 289.23653166924237 x_5,14__out + 578.4730633384847 x_5,15__out + 1 x196
subject to
selffin: -1.0005 x_6,1__in - 2.001 x_6,2__in - 4.002 x_6,3__in - 8.004 x_6,4__in - 16.008 x_6,5__in - 32.016 x_6,6__in - 64.032 x_6,7__in - 128.064 x_6,8__in - 256.128 x_6,9__in - 512.256 x_6,10__in - 1024.512 x_6,11__in - 2049.024 x_6,12__in - 4098.048 x_6,13__in - 8196.096 x_6,14__in - 16392.192 x_6,15__in + 1.001 b_1_ + 1.001 b_2_ + 1.001 b_3_ + 1.001 b_4_ + 1.001 b_5_ - 0.999 s_1_ - 0.999 s_2_ - 0.999 s_3_ - 0.999 s_4_ - 0.999 s_5_ + 1 x_6,1__out + 2 x_6,2__out + 4 x_6,3__out + 8 x_6,4__out + 16 x_6,5__out + 32 x_6,6__out + 64 x_6,7__out + 128 x_6,8__out + 256 x_6,9__out + 512 x_6,10__out + 1024 x_6,11__out + 2048 x_6,12__out + 4096 x_6,13__out + 8192 x_6,14__out + 16384 x_6,15__out = 0
flow_1_: -1 x_1,1__in - 2 x_1,2__in - 4 x_1,3__in - 8 x_1,4__in - 16 x_1,5__in - 32 x_1,6__in - 64 x_1,7__in - 128 x_1,8__in - 256 x_1,9__in - 512 x_1,10__in - 1024 x_1,11__in - 2048 x_1,12__in - 4096 x_1,13__in - 8192 x_1,14__in - 16384 x_1,15__in - 1 b_1_ + 1 s_1_ + 1 x_1,1__out + 2 x_1,2__out + 4 x_1,3__out + 8 x_1,4__out + 16 x_1,5__out + 32 x_1,6__out + 64 x_1,7__out + 128 x_1,8__out + 256 x_1,9__out + 512 x_1,10__out + 1024 x_1,11__out + 2048 x_1,12__out + 4096 x_1,13__out + 8192 x_1,14__out + 16384 x_1,15__out + [ -1 prev_period_return_1_ * x_1,1__in - 2 prev_period_return_1_ * x_1,2__in - 4 prev_period_return_1_ * x_1,3__in - 8 prev_period_return_1_ * x_1,4__in - 16 prev_period_return_1_ * x_1,5__in - 32 prev_period_return_1_ * x_1,6__in - 64 prev_period_return_1_ * x_1,7__in - 128 prev_period_return_1_ * x_1,8__in - 256 prev_period_return_1_ * x_1,9__in - 512 prev_period_return_1_ * x_1,10__in - 1024 prev_period_return_1_ * x_1,11__in - 2048 prev_period_return_1_ * x_1,12__in - 4096 prev_period_return_1_ * x_1,13__in - 8192 prev_period_return_1_ * x_1,14__in - 16384 prev_period_return_1_ * x_1,15__in ] = 0
flow_2_: -1 x_2,1__in - 2 x_2,2__in - 4 x_2,3__in - 8 x_2,4__in - 16 x_2,5__in - 32 x_2,6__in - 64 x_2,7__in - 128 x_2,8__in - 256 x_2,9__in - 512 x_2,10__in - 1024 x_2,11__in - 2048 x_2,12__in - 4096 x_2,13__in - 8192 x_2,14__in - 16384 x_2,15__in - 1 b_2_ + 1 s_2_ + 1 x_2,1__out + 2 x_2,2__out + 4 x_2,3__out + 8 x_2,4__out + 16 x_2,5__out + 32 x_2,6__out + 64 x_2,7__out + 128 x_2,8__out + 256 x_2,9__out + 512 x_2,10__out + 1024 x_2,11__out + 2048 x_2,12__out + 4096 x_2,13__out + 8192 x_2,14__out + 16384 x_2,15__out + [ -1 prev_period_return_2_ * x_2,1__in - 2 prev_period_return_2_ * x_2,2__in - 4 prev_period_return_2_ * x_2,3__in - 8 prev_period_return_2_ * x_2,4__in - 16 prev_period_return_2_ * x_2,5__in - 32 prev_period_return_2_ * x_2,6__in - 64 prev_period_return_2_ * x_2,7__in - 128 prev_period_return_2_ * x_2,8__in - 256 prev_period_return_2_ * x_2,9__in - 512 prev_period_return_2_ * x_2,10__in - 1024 prev_period_return_2_ * x_2,11__in - 2048 prev_period_return_2_ * x_2,12__in - 4096 prev_period_return_2_ * x_2,13__in - 8192 prev_period_return_2_ * x_2,14__in - 16384 prev_period_return_2_ * x_2,15__in ] = 0
flow_3_: -1 x_3,1__in - 2 x_3,2__in - 4 x_3,3__in - 8 x_3,4__in - 16 x_3,5__in - 32 x_3,6__in - 64 x_3,7__in - 128 x_3,8__in - 256 x_3,9__in - 512 x_3,10__in - 1024 x_3,11__in - 2048 x_3,12__in - 4096 x_3,13__in - 8192 x_3,14__in - 16384 x_3,15__in - 1 b_3_ + 1 s_3_ + 1 x_3,1__out + 2 x_3,2__out + 4 x_3,3__out + 8 x_3,4__out + 16 x_3,5__out + 32 x_3,6__out + 64 x_3,7__out + 128 x_3,8__out + 256 x_3,9__out + 512 x_3,10__out + 1024 x_3,11__out + 2048 x_3,12__out + 4096 x_3,13__out + 8192 x_3,14__out + 16384 x_3,15__out + [ -1 prev_period_return_3_ * x_3,1__in - 2 prev_period_return_3_ * x_3,2__in - 4 prev_period_return_3_ * x_3,3__in - 8 prev_period_return_3_ * x_3,4__in - 16 prev_period_return_3_ * x_3,5__in - 32 prev_period_return_3_ * x_3,6__in - 64 prev_period_return_3_ * x_3,7__in - 128 prev_period_return_3_ * x_3,8__in - 256 prev_period_return_3_ * x_3,9__in - 512 prev_period_return_3_ * x_3,10__in - 1024 prev_period_return_3_ * x_3,11__in - 2048 prev_period_return_3_ * x_3,12__in - 4096 prev_period_return_3_ * x_3,13__in - 8192 prev_period_return_3_ * x_3,14__in - 16384 prev_period_return_3_ * x_3,15__in ] = 0
flow_4_: -1 x_4,1__in - 2 x_4,2__in - 4 x_4,3__in - 8 x_4,4__in - 16 x_4,5__in - 32 x_4,6__in - 64 x_4,7__in - 128 x_4,8__in - 256 x_4,9__in - 512 x_4,10__in - 1024 x_4,11__in - 2048 x_4,12__in - 4096 x_4,13__in - 8192 x_4,14__in - 16384 x_4,15__in - 1 b_4_ + 1 s_4_ + 1 x_4,1__out + 2 x_4,2__out + 4 x_4,3__out + 8 x_4,4__out + 16 x_4,5__out + 32 x_4,6__out + 64 x_4,7__out + 128 x_4,8__out + 256 x_4,9__out + 512 x_4,10__out + 1024 x_4,11__out + 2048 x_4,12__out + 4096 x_4,13__out + 8192 x_4,14__out + 16384 x_4,15__out + [ -1 prev_period_return_4_ * x_4,1__in - 2 prev_period_return_4_ * x_4,2__in - 4 prev_period_return_4_ * x_4,3__in - 8 prev_period_return_4_ * x_4,4__in - 16 prev_period_return_4_ * x_4,5__in - 32 prev_period_return_4_ * x_4,6__in - 64 prev_period_return_4_ * x_4,7__in - 128 prev_period_return_4_ * x_4,8__in - 256 prev_period_return_4_ * x_4,9__in - 512 prev_period_return_4_ * x_4,10__in - 1024 prev_period_return_4_ * x_4,11__in - 2048 prev_period_return_4_ * x_4,12__in - 4096 prev_period_return_4_ * x_4,13__in - 8192 prev_period_return_4_ * x_4,14__in - 16384 prev_period_return_4_ * x_4,15__in ] = 0
flow_5_: -1 x_5,1__in - 2 x_5,2__in - 4 x_5,3__in - 8 x_5,4__in - 16 x_5,5__in - 32 x_5,6__in - 64 x_5,7__in - 128 x_5,8__in - 256 x_5,9__in - 512 x_5,10__in - 1024 x_5,11__in - 2048 x_5,12__in - 4096 x_5,13__in - 8192 x_5,14__in - 16384 x_5,15__in - 1 b_5_ + 1 s_5_ + 1 x_5,1__out + 2 x_5,2__out + 4 x_5,3__out + 8 x_5,4__out + 16 x_5,5__out + 32 x_5,6__out + 64 x_5,7__out + 128 x_5,8__out + 256 x_5,9__out + 512 x_5,10__out + 1024 x_5,11__out + 2048 x_5,12__out + 4096 x_5,13__out + 8192 x_5,14__out + 16384 x_5,15__out + [ -1 prev_period_return_5_ * x_5,1__in - 2 prev_period_return_5_ * x_5,2__in - 4 prev_period_return_5_ * x_5,3__in - 8 prev_period_return_5_ * x_5,4__in - 16 prev_period_return_5_ * x_5,5__in - 32 prev_period_return_5_ * x_5,6__in - 64 prev_period_return_5_ * x_5,7__in - 128 prev_period_return_5_ * x_5,8__in - 256 prev_period_return_5_ * x_5,9__in - 512 prev_period_return_5_ * x_5,10__in - 1024 prev_period_return_5_ * x_5,11__in - 2048 prev_period_return_5_ * x_5,12__in - 4096 prev_period_return_5_ * x_5,13__in - 8192 prev_period_return_5_ * x_5,14__in - 16384 prev_period_return_5_ * x_5,15__in ] = 0
Bounds
x_1,1__out <= 1
x_2,1__out <= 1
x_3,1__out <= 1
x_4,1__out <= 1
x_5,1__out <= 1
x_6,1__out <= 1
x_1,2__out <= 1
x_2,2__out <= 1
x_3,2__out <= 1
x_4,2__out <= 1
x_5,2__out <= 1
x_6,2__out <= 1
x_1,3__out <= 1
x_2,3__out <= 1
x_3,3__out <= 1
x_4,3__out <= 1
x_5,3__out <= 1
x_6,3__out <= 1
x_1,4__out <= 1
x_2,4__out <= 1
x_3,4__out <= 1
x_4,4__out <= 1
x_5,4__out <= 1
x_6,4__out <= 1
x_1,5__out <= 1
x_2,5__out <= 1
x_3,5__out <= 1
x_4,5__out <= 1
x_5,5__out <= 1
x_6,5__out <= 1
x_1,6__out <= 1
x_2,6__out <= 1
x_3,6__out <= 1
x_4,6__out <= 1
x_5,6__out <= 1
x_6,6__out <= 1
x_1,7__out <= 1
x_2,7__out <= 1
x_3,7__out <= 1
x_4,7__out <= 1
x_5,7__out <= 1
x_6,7__out <= 1
x_1,8__out <= 1
x_2,8__out <= 1
x_3,8__out <= 1
x_4,8__out <= 1
x_5,8__out <= 1
x_6,8__out <= 1
x_1,9__out <= 1
x_2,9__out <= 1
x_3,9__out <= 1
x_4,9__out <= 1
x_5,9__out <= 1
x_6,9__out <= 1
x_1,10__out <= 1
x_2,10__out <= 1
x_3,10__out <= 1
x_4,10__out <= 1
x_5,10__out <= 1
x_6,10__out <= 1
x_1,11__out <= 1
x_2,11__out <= 1
x_3,11__out <= 1
x_4,11__out <= 1
x_5,11__out <= 1
x_6,11__out <= 1
x_1,12__out <= 1
x_2,12__out <= 1
x_3,12__out <= 1
x_4,12__out <= 1
x_5,12__out <= 1
x_6,12__out <= 1
x_1,13__out <= 1
x_2,13__out <= 1
x_3,13__out <= 1
x_4,13__out <= 1
x_5,13__out <= 1
x_6,13__out <= 1
x_1,14__out <= 1
x_2,14__out <= 1
x_3,14__out <= 1
x_4,14__out <= 1
x_5,14__out <= 1
x_6,14__out <= 1
x_1,15__out <= 1
x_2,15__out <= 1
x_3,15__out <= 1
x_4,15__out <= 1
x_5,15__out <= 1
x_6,15__out <= 1
x196 <= 0
b_1_ >= 0
b_2_ >= 0
b_3_ >= 0
b_4_ >= 0
b_5_ >= 0
s_1_ >= 0
s_2_ >= 0
s_3_ >= 0
s_4_ >= 0
s_5_ >= 0
x_1,1__out >= 0
x_2,1__out >= 0
x_3,1__out >= 0
x_4,1__out >= 0
x_5,1__out >= 0
x_6,1__out >= 0
x_1,2__out >= 0
x_2,2__out >= 0
x_3,2__out >= 0
x_4,2__out >= 0
x_5,2__out >= 0
x_6,2__out >= 0
x_1,3__out >= 0
x_2,3__out >= 0
x_3,3__out >= 0
x_4,3__out >= 0
x_5,3__out >= 0
x_6,3__out >= 0
x_1,4__out >= 0
x_2,4__out >= 0
x_3,4__out >= 0
x_4,4__out >= 0
x_5,4__out >= 0
x_6,4__out >= 0
x_1,5__out >= 0
x_2,5__out >= 0
x_3,5__out >= 0
x_4,5__out >= 0
x_5,5__out >= 0
x_6,5__out >= 0
x_1,6__out >= 0
x_2,6__out >= 0
x_3,6__out >= 0
x_4,6__out >= 0
x_5,6__out >= 0
x_6,6__out >= 0
x_1,7__out >= 0
x_2,7__out >= 0
x_3,7__out >= 0
x_4,7__out >= 0
x_5,7__out >= 0
x_6,7__out >= 0
x_1,8__out >= 0
x_2,8__out >= 0
x_3,8__out >= 0
x_4,8__out >= 0
x_5,8__out >= 0
x_6,8__out >= 0
x_1,9__out >= 0
x_2,9__out >= 0
x_3,9__out >= 0
x_4,9__out >= 0
x_5,9__out >= 0
x_6,9__out >= 0
x_1,10__out >= 0
x_2,10__out >= 0
x_3,10__out >= 0
x_4,10__out >= 0
x_5,10__out >= 0
x_6,10__out >= 0
x_1,11__out >= 0
x_2,11__out >= 0
x_3,11__out >= 0
x_4,11__out >= 0
x_5,11__out >= 0
x_6,11__out >= 0
x_1,12__out >= 0
x_2,12__out >= 0
x_3,12__out >= 0
x_4,12__out >= 0
x_5,12__out >= 0
x_6,12__out >= 0
x_1,13__out >= 0
x_2,13__out >= 0
x_3,13__out >= 0
x_4,13__out >= 0
x_5,13__out >= 0
x_6,13__out >= 0
x_1,14__out >= 0
x_2,14__out >= 0
x_3,14__out >= 0
x_4,14__out >= 0
x_5,14__out >= 0
x_6,14__out >= 0
x_1,15__out >= 0
x_2,15__out >= 0
x_3,15__out >= 0
x_4,15__out >= 0
x_5,15__out >= 0
x_6,15__out >= 0
x196 >= 0
x_1,1__in = 0
x_2,1__in = 0
x_3,1__in = 0
x_4,1__in = 0
x_5,1__in = 0
x_6,1__in = 0
x_1,2__in = 0
x_2,2__in = 0
x_3,2__in = 0
x_4,2__in = 0
x_5,2__in = 0
x_6,2__in = 0
x_1,3__in = 0
x_2,3__in = 0
x_3,3__in = 0
x_4,3__in = 0
x_5,3__in = 0
x_6,3__in = 0
x_1,4__in = 0
x_2,4__in = 0
x_3,4__in = 0
x_4,4__in = 0
x_5,4__in = 0
x_6,4__in = 0
x_1,5__in = 0
x_2,5__in = 0
x_3,5__in = 0
x_4,5__in = 0
x_5,5__in = 0
x_6,5__in = 0
x_1,6__in = 0
x_2,6__in = 0
x_3,6__in = 0
x_4,6__in = 0
x_5,6__in = 0
x_6,6__in = 0
x_1,7__in = 0
x_2,7__in = 0
x_3,7__in = 0
x_4,7__in = 0
x_5,7__in = 0
x_6,7__in = 0
x_1,8__in = 0
x_2,8__in = 0
x_3,8__in = 0
x_4,8__in = 0
x_5,8__in = 0
x_6,8__in = 0
x_1,9__in = 0
x_2,9__in = 0
x_3,9__in = 0
x_4,9__in = 0
x_5,9__in = 0
x_6,9__in = 0
x_1,10__in = 0
x_2,10__in = 0
x_3,10__in = 0
x_4,10__in = 0
x_5,10__in = 0
x_6,10__in = 0
x_1,11__in = 0
x_2,11__in = 0
x_3,11__in = 0
x_4,11__in = 0
x_5,11__in = 0
x_6,11__in = 0
x_1,12__in = 0
x_2,12__in = 0
x_3,12__in = 0
x_4,12__in = 0
x_5,12__in = 0
x_6,12__in = 0
x_1,13__in = 0
x_2,13__in = 0
x_3,13__in = 0
x_4,13__in = 0
x_5,13__in = 0
x_6,13__in = 0
x_1,14__in = 0
x_2,14__in = 0
x_3,14__in = 0
x_4,14__in = 0
x_5,14__in = 0
x_6,14__in = 0
x_1,15__in = 0
x_2,15__in = 0
x_3,15__in = 0
x_4,15__in = 0
x_5,15__in = 0
x_6,15__in = 0
prev_period_return_1_ = 0.011882685404351752
prev_period_return_2_ = 0.02225914382645814
prev_period_return_3_ = 0.007344841952419809
prev_period_return_4_ = 0.02077026773144891
prev_period_return_5_ = -0.031888691346235246
End
